c description: Random 3-CNF over 15 variables and 45 clauses
c generator: CNFgen (0.9.0)
c copyright: (C) 2012-2020 Massimo Lauria <massimo.lauria@uniroma1.it>
c url: https://massimolauria.net/cnfgen
c
p cnf 15 45
2 13 -15 0
2 5 -10 0
6 -8 -13 0
-1 -6 12 0
-2 -8 -11 0
3 -6 15 0
1 2 -13 0
-2 -4 10 0
9 10 -13 0
-7 11 -12 0
-5 11 -14 0
-2 3 12 0
-6 -8 10 0
-2 -9 15 0
-2 -9 14 0
-1 10 -14 0
1 5 12 0
-1 10 15 0
-4 6 14 0
1 -5 -11 0
5 11 14 0
3 4 -12 0
-1 -6 -11 0
7 11 13 0
1 -11 -14 0
8 -11 -12 0
-5 -8 13 0
5 9 -15 0
2 7 -11 0
6 -8 -9 0
-1 -3 12 0
-1 -8 10 0
-3 -10 -12 0
1 12 15 0
2 -4 10 0
6 12 15 0
-4 9 13 0
12 -13 15 0
3 -7 11 0
2 -3 4 0
-7 -14 15 0
2 -3 -11 0
-5 7 10 0
5 -6 10 0
4 6 -11 0